\ LP format - for model browsing. Use MPS format to capture full model detail.
Minimize
  0 B12(0) + 0 B19(0) + 0 B24(0) + 0 B25(0) + 0 B26(0) + 0 B30(0) + 0 B31(0)
   + 0 B33(0) + 0 B36(0) + 0 B37(0) + 0 B38(0) + 0 B39(0) + 0 B40(0)
   + 0 B41(0) + 0 B42(0) + 0 B43(0) + 0 B44(0) + 0 B45(0) + 0 B46(0)
   + 0 B47(0) + I60(1)
Subject To
 c0: B0(17) + B1(17) = 1
 c1: B2(16) + B3(16) = 1
 c2: B4(18) + B5(18) = 1
 c3: B6(17) + B7(17) = 1
 c4: B8(13) + B9(13) = 1
 c5: B10(12) + B11(12) = 1
 c6: - 43 B0(17) - 36 B1(17) - I48(18) - I49(18) + I50(19) + I51(19) >= 0
 c7: - 71043 B0(17) - 36 B1(17) - 71000 B2(16) - I48(18) - I49(18)
   + I50(19) + I51(19) >= -141997
 c8: - 43 B0(17) - 71036 B1(17) - 71000 B3(16) - I48(18) - I49(18)
   + I50(19) + I51(19) >= -141995
 c9: - 34 B4(18) - 53 B5(18) - I52(18) - I53(18) + I54(19) + I55(19) >= 0
 c10: - 71034 B4(18) - 53 B5(18) - 71000 B6(17) - I52(18) - I53(18)
   + I54(19) + I55(19) >= -141995
 c11: - 34 B4(18) - 71053 B5(18) - 71000 B7(17) - I52(18) - I53(18)
   + I54(19) + I55(19) >= -141997
 c12: - 21 B8(13) - 35 B9(13) - I56(14) - I57(14) + I58(15) + I59(15) >= 0
 c13: - 71021 B8(13) - 35 B9(13) - 71000 B10(12) - I56(14) - I57(14)
   + I58(15) + I59(15) >= -141996
 c14: - 21 B8(13) - 71035 B9(13) - 71000 B11(12) - I56(14) - I57(14)
   + I58(15) + I59(15) >= -141997
 c15: - 71000 B0(17) + I48(18) <= 0
 c16: - 71000 B1(17) + I49(18) <= 0
 c17: - 71000 B2(16) + I50(19) <= 0
 c18: - 71000 B3(16) + I51(19) <= 0
 c19: - 71000 B4(18) + I52(18) <= 0
 c20: - 71000 B5(18) + I53(18) <= 0
 c21: - 71000 B6(17) + I54(19) <= 0
 c22: - 71000 B7(17) + I55(19) <= 0
 c23: - 71000 B8(13) + I56(14) <= 0
 c24: - 71000 B9(13) + I57(14) <= 0
 c25: - 71000 B10(12) + I58(15) <= 0
 c26: - 71000 B11(12) + I59(15) <= 0
 c27: - 71000 B0(17) - 71000 B2(16) - 71000 B13(4) + I48(18) - I50(19)
   >= -212933
 c28: - 71000 B0(17) - 71000 B2(16) + 71000 B13(4) - I48(18) + I50(19)
   >= -141954
 c29: - 71000 B1(17) - 71000 B3(16) - 71000 B13(4) + I49(18) - I51(19)
   >= -212926
 c30: - 71000 B1(17) - 71000 B3(16) + 71000 B13(4) - I49(18) + I51(19)
   >= -141959
 c31: - 71000 B0(17) - 71000 B4(18) - 71000 B14(4) + I48(18) - I52(18)
   >= -212963
 c32: - 71000 B0(17) - 71000 B4(18) + 71000 B14(4) - I48(18) + I52(18)
   >= -141953
 c33: - 71000 B1(17) - 71000 B5(18) - 71000 B14(4) + I49(18) - I53(18)
   >= -212943
 c34: - 71000 B1(17) - 71000 B5(18) + 71000 B14(4) - I49(18) + I53(18)
   >= -141961
 c35: - 71000 B0(17) - 71000 B6(17) - 71000 B15(4) + I48(18) - I54(19)
   >= -212960
 c36: - 71000 B0(17) - 71000 B6(17) + 71000 B15(4) - I48(18) + I54(19)
   >= -141953
 c37: - 71000 B1(17) - 71000 B7(17) - 71000 B15(4) + I49(18) - I55(19)
   >= -212976
 c38: - 71000 B1(17) - 71000 B7(17) + 71000 B15(4) - I49(18) + I55(19)
   >= -141961
 c39: - 71000 B0(17) - 71000 B8(13) - 71000 B16(4) + I48(18) - I56(14)
   >= -212975
 c40: - 71000 B0(17) - 71000 B8(13) + 71000 B16(4) - I48(18) + I56(14)
   >= -141954
 c41: - 71000 B1(17) - 71000 B9(13) - 71000 B16(4) + I49(18) - I57(14)
   >= -212961
 c42: - 71000 B1(17) - 71000 B9(13) + 71000 B16(4) - I49(18) + I57(14)
   >= -141961
 c43: - 71000 B0(17) - 71000 B10(12) - 71000 B17(4) + I48(18) - I58(15)
   >= -212954
 c44: - 71000 B0(17) - 71000 B10(12) + 71000 B17(4) - I48(18) + I58(15)
   >= -141953
 c45: - 71000 B1(17) - 71000 B11(12) - 71000 B17(4) + I49(18) - I59(15)
   >= -212959
 c46: - 71000 B1(17) - 71000 B11(12) + 71000 B17(4) - I49(18) + I59(15)
   >= -141961
 c47: - 71000 B0(17) - 71000 B2(16) - 71000 B18(4) - I48(18) + I50(19)
   >= -212954
 c48: - 71000 B0(17) - 71000 B2(16) + 71000 B18(4) + I48(18) - I50(19)
   >= -141933
 c49: - 71000 B1(17) - 71000 B3(16) - 71000 B18(4) - I49(18) + I51(19)
   >= -212959
 c50: - 71000 B1(17) - 71000 B3(16) + 71000 B18(4) + I49(18) - I51(19)
   >= -141926
 c51: - 71000 B2(16) - 71000 B4(18) - 71000 B20(4) + I50(19) - I52(18)
   >= -212962
 c52: - 71000 B2(16) - 71000 B4(18) + 71000 B20(4) - I50(19) + I52(18)
   >= -141932
 c53: - 71000 B3(16) - 71000 B5(18) - 71000 B20(4) + I51(19) - I53(18)
   >= -212944
 c54: - 71000 B3(16) - 71000 B5(18) + 71000 B20(4) - I51(19) + I53(18)
   >= -141926
 c55: - 71000 B2(16) - 71000 B6(17) - 71000 B21(4) + I50(19) - I54(19)
   >= -212961
 c56: - 71000 B2(16) - 71000 B6(17) + 71000 B21(4) - I50(19) + I54(19)
   >= -141933
 c57: - 71000 B3(16) - 71000 B7(17) - 71000 B21(4) + I51(19) - I55(19)
   >= -212976
 c58: - 71000 B3(16) - 71000 B7(17) + 71000 B21(4) - I51(19) + I55(19)
   >= -141924
 c59: - 71000 B2(16) - 71000 B8(13) - 71000 B22(4) + I50(19) - I56(14)
   >= -212976
 c60: - 71000 B2(16) - 71000 B8(13) + 71000 B22(4) - I50(19) + I56(14)
   >= -141933
 c61: - 71000 B3(16) - 71000 B9(13) - 71000 B22(4) + I51(19) - I57(14)
   >= -212960
 c62: - 71000 B3(16) - 71000 B9(13) + 71000 B22(4) - I51(19) + I57(14)
   >= -141925
 c63: - 71000 B2(16) - 71000 B10(12) - 71000 B23(4) + I50(19) - I58(15)
   >= -212952
 c64: - 71000 B2(16) - 71000 B10(12) + 71000 B23(4) - I50(19) + I58(15)
   >= -141932
 c65: - 71000 B3(16) - 71000 B11(12) - 71000 B23(4) + I51(19) - I59(15)
   >= -212959
 c66: - 71000 B3(16) - 71000 B11(12) + 71000 B23(4) - I51(19) + I59(15)
   >= -141926
 c67: - 71000 B4(18) - 71000 B6(17) - 71000 B27(4) + I52(18) - I54(19)
   >= -212960
 c68: - 71000 B4(18) - 71000 B6(17) + 71000 B27(4) - I52(18) + I54(19)
   >= -141961
 c69: - 71000 B5(18) - 71000 B7(17) - 71000 B27(4) + I53(18) - I55(19)
   >= -212976
 c70: - 71000 B5(18) - 71000 B7(17) + 71000 B27(4) - I53(18) + I55(19)
   >= -141944
 c71: - 71000 B4(18) - 71000 B8(13) - 71000 B28(4) + I52(18) - I56(14)
   >= -212976
 c72: - 71000 B4(18) - 71000 B8(13) + 71000 B28(4) - I52(18) + I56(14)
   >= -141962
 c73: - 71000 B5(18) - 71000 B9(13) - 71000 B28(4) + I53(18) - I57(14)
   >= -212961
 c74: - 71000 B5(18) - 71000 B9(13) + 71000 B28(4) - I53(18) + I57(14)
   >= -141944
 c75: - 71000 B4(18) - 71000 B10(12) - 71000 B29(4) + I52(18) - I58(15)
   >= -212954
 c76: - 71000 B4(18) - 71000 B10(12) + 71000 B29(4) - I52(18) + I58(15)
   >= -141963
 c77: - 71000 B5(18) - 71000 B11(12) - 71000 B29(4) + I53(18) - I59(15)
   >= -212959
 c78: - 71000 B5(18) - 71000 B11(12) + 71000 B29(4) - I53(18) + I59(15)
   >= -141944
 c79: - 71000 B4(18) - 71000 B6(17) - 71000 B32(4) - I52(18) + I54(19)
   >= -212961
 c80: - 71000 B4(18) - 71000 B6(17) + 71000 B32(4) + I52(18) - I54(19)
   >= -141960
 c81: - 71000 B5(18) - 71000 B7(17) - 71000 B32(4) - I53(18) + I55(19)
   >= -212944
 c82: - 71000 B5(18) - 71000 B7(17) + 71000 B32(4) + I53(18) - I55(19)
   >= -141976
 c83: - 71000 B6(17) - 71000 B8(13) - 71000 B34(4) + I54(19) - I56(14)
   >= -212975
 c84: - 71000 B6(17) - 71000 B8(13) + 71000 B34(4) - I54(19) + I56(14)
   >= -141961
 c85: - 71000 B7(17) - 71000 B9(13) - 71000 B34(4) + I55(19) - I57(14)
   >= -212960
 c86: - 71000 B7(17) - 71000 B9(13) + 71000 B34(4) - I55(19) + I57(14)
   >= -141975
 c87: - 71000 B6(17) - 71000 B10(12) - 71000 B35(4) + I54(19) - I58(15)
   >= -212953
 c88: - 71000 B6(17) - 71000 B10(12) + 71000 B35(4) - I54(19) + I58(15)
   >= -141961
 c89: - 71000 B7(17) - 71000 B11(12) - 71000 B35(4) + I55(19) - I59(15)
   >= -212959
 c90: - 71000 B7(17) - 71000 B11(12) + 71000 B35(4) - I55(19) + I59(15)
   >= -141976
 c91: I48(18) >= 0
 c92: I48(18) >= 0
 c93: I49(18) >= 0
 c94: I49(18) >= 0
 c95: I50(19) >= 0
 c96: I50(19) >= 0
 c97: I51(19) >= 0
 c98: I51(19) >= 0
 c99: - 10 B4(18) + I52(18) >= 0
 c100: I52(18) >= 0
 c101: - 10 B5(18) + I53(18) >= 0
 c102: I53(18) >= 0
 c103: - 10 B6(17) + I54(19) >= 0
 c104: I54(19) >= 0
 c105: - 10 B7(17) + I55(19) >= 0
 c106: I55(19) >= 0
 c107: I56(14) >= 0
 c108: I56(14) >= 0
 c109: I57(14) >= 0
 c110: I57(14) >= 0
 c111: I58(15) >= 0
 c112: I58(15) >= 0
 c113: I59(15) >= 0
 c114: I59(15) >= 0
 c115: - 64 B2(16) - 71 B3(16) - 36 B6(17) - 21 B7(17) - 43 B10(12)
   - 37 B11(12) - I50(19) - I51(19) - I54(19) - I55(19) - I58(15) - I59(15)
   + I60(1) = 0
Bounds
Binaries
 B0(17) B1(17) B2(16) B3(16) B4(18) B5(18) B6(17) B7(17) B8(13) B9(13)
 B10(12) B11(12) B12(0) B13(4) B14(4) B15(4) B16(4) B17(4) B18(4) B19(0)
 B20(4) B21(4) B22(4) B23(4) B24(0) B25(0) B26(0) B27(4) B28(4) B29(4)
 B30(0) B31(0) B32(4) B33(0) B34(4) B35(4) B36(0) B37(0) B38(0) B39(0)
 B40(0) B41(0) B42(0) B43(0) B44(0) B45(0) B46(0) B47(0)
Generals
 I48(18) I49(18) I50(19) I51(19) I52(18) I53(18) I54(19) I55(19) I56(14)
 I57(14) I58(15) I59(15) I60(1)
End
